(set-logic QF_SLIA)
(declare-fun var0 () String)
(assert (not (str.in_re var0 (re.++ ((_ re.loop 7 293) (re.++ (re.union (str.to_re "|T") (re.union (str.to_re ";") (re.union (str.to_re "=M") (str.to_re "]")))) (re.++ (re.union (str.to_re "Y9:") (re.union (str.to_re "=") (re.union (str.to_re "sa") (str.to_re "!")))) (re.++ (re.union (str.to_re ">\\") (re.union (str.to_re "M:[") (re.union (str.to_re "OK<") (str.to_re "ls")))) (re.union (str.to_re "E3") (re.union (str.to_re "s;p") (re.union (str.to_re ":#I") (str.to_re "Qn$")))))))) (re.++ ((_ re.loop 9 811) (re.++ (re.union (str.to_re "m") (re.union (str.to_re "c") (re.union (str.to_re "glQ") (str.to_re "2")))) (re.++ (re.union (str.to_re "p") (re.union (str.to_re "e") (re.union (str.to_re "V0") (str.to_re "5A")))) (re.++ (re.union (str.to_re "`") (re.union (str.to_re "%0") (re.union (str.to_re "x^") (str.to_re "Ug")))) (re.union (str.to_re "9:") (re.union (str.to_re "n?L") (re.union (str.to_re "f)") (str.to_re "qK")))))))) (re.++ ((_ re.loop 15 809) (re.++ (re.union (str.to_re "w") (re.union (str.to_re "?c") (re.union (str.to_re ")#{") (str.to_re "?i")))) (re.++ (re.union (str.to_re "My") (re.union (str.to_re "N1") (re.union (str.to_re "BD") (str.to_re "@5")))) (re.++ (re.union (str.to_re "!Bj") (re.union (str.to_re "RKs") (re.union (str.to_re "j") (str.to_re "r=>")))) (re.union (str.to_re "s") (re.union (str.to_re "We") (re.union (str.to_re "!A") (str.to_re "KD<")))))))) ((_ re.loop 16 963) (re.++ (re.union (str.to_re "u") (re.union (str.to_re "_H\\") (re.union (str.to_re "{") (str.to_re ".;")))) (re.++ (re.union (str.to_re "b(S") (re.union (str.to_re "5") (re.union (str.to_re ">") (str.to_re "C")))) (re.++ (re.union (str.to_re "=f") (re.union (str.to_re "L") (re.union (str.to_re "[") (str.to_re "aS")))) (re.union (str.to_re "t") (re.union (str.to_re "[") (re.union (str.to_re "l") (str.to_re "8"))))))))))))))
(assert (not (str.in_re var0 (re.++ ((_ re.loop 18 862) (re.++ (re.union (str.to_re "^") (re.union (str.to_re ":5") (re.union (str.to_re "x") (str.to_re ")+")))) (re.++ (re.union (str.to_re "wp") (re.union (str.to_re "*d") (re.union (str.to_re "~L") (str.to_re "xq]")))) (re.++ (re.union (str.to_re "C") (re.union (str.to_re "[") (re.union (str.to_re "R") (str.to_re "R<")))) (re.union (str.to_re "s") (re.union (str.to_re "q") (re.union (str.to_re "7O") (str.to_re "N0")))))))) (re.++ ((_ re.loop 9 386) (re.++ (re.union (str.to_re "u~J") (re.union (str.to_re "Y<*") (re.union (str.to_re "b)") (str.to_re "p")))) (re.++ (re.union (str.to_re "H[3") (re.union (str.to_re "$") (re.union (str.to_re "7{") (str.to_re "y")))) (re.++ (re.union (str.to_re "(wC") (re.union (str.to_re ">") (re.union (str.to_re "f") (str.to_re "de]")))) (re.union (str.to_re "~=") (re.union (str.to_re "d") (re.union (str.to_re ")") (str.to_re "%")))))))) (re.++ ((_ re.loop 9 953) (re.++ (re.union (str.to_re "OD") (re.union (str.to_re "0") (re.union (str.to_re "j0") (str.to_re "Q")))) (re.++ (re.union (str.to_re "2})") (re.union (str.to_re "j>M") (re.union (str.to_re "r") (str.to_re "KZ")))) (re.++ (re.union (str.to_re "!O") (re.union (str.to_re "*g") (re.union (str.to_re ")") (str.to_re "slD")))) (re.union (str.to_re "Fi9") (re.union (str.to_re "eKX") (re.union (str.to_re "%") (str.to_re ",")))))))) ((_ re.loop 10 749) (re.++ (re.union (str.to_re "iz") (re.union (str.to_re "4") (re.union (str.to_re "f?") (str.to_re "`")))) (re.++ (re.union (str.to_re ":Em") (re.union (str.to_re "sNG") (re.union (str.to_re "7]A") (str.to_re ".")))) (re.++ (re.union (str.to_re "%") (re.union (str.to_re "n") (re.union (str.to_re "8G") (str.to_re "eN'")))) (re.union (str.to_re "Z4") (re.union (str.to_re "Tv%") (re.union (str.to_re "9k") (str.to_re "+"))))))))))))))
(assert (not (str.in_re var0 (re.++ (re.* re.allchar) (re.++ (re.union (str.to_re "<") (re.union (str.to_re ">") (re.union (str.to_re "'") (re.union (str.to_re "\u0022") (str.to_re "&"))))) (re.* re.allchar))))))
(assert (<= 50 (str.len var0)))
(check-sat)
(get-model)
